c instance by G2
c solution = 11101001101110100111101
c Known solution cost is 1362 
p cnf 23 30
w 98 34 87 71 57 51 94 6 43 86 85 80 44 77 83 72 84 33 21 30 33 60 33
6 23 7 0
17 -15 11 0
6 2 -11 0
-7 -15 -18 0
20 -1 8 0
16 6 9 0
-2 -18 -16 0
14 8 -13 0
-18 -10 20 0
2 11 22 0
22 13 17 0
-8 -18 2 0
-10 -15 7 0
-12 9 -5 0
-2 -13 20 0
14 4 15 0
-22 -18 -12 0
10 19 4 0
-4 -20 -11 0
14 12 -1 0
4 -20 21 0
7 1 -23 0
-17 4 -20 0
-13 22 -14 0
14 18 10 0
18 -17 20 0
-19 22 3 0
-1 -10 -16 0
-21 5 14 0
7 -6 -11 0
